[[24,29,38,39,47,55,64,65,73,82,89,113,137,153,156],[225,253,272,273,310,338,366,473,480,566,572,607,684,691,764,848,959],[70,161,166,174,276,324,363,394,586,594,632,633,671,795,857,991,994],[1,192,198,229,342,348,375,376,424,532,550,670,735,832,920,958,999],[2,75,214,215,296,371,398,459,579,704,709,711,753,756,786,802,851],[68,200,201,250,317,344,346,399,409,457,466,730,828,835,926,941,964]]